
50
126943

454710 6821
61130 917
411912 6179
561305 8420
556372 8346
343382 5151
420712 6311
246187 3693
352049 5281
71929 1079
455310 6830
400446 6007
187990 2820
252387 3786
490775 7362
295918 4439
639768 9597
647500 9713
558905 8384
60730 911
50130 752
192390 2886
240787 3612
469976 7050
551239 8269
375114 5627
426112 6392
382047 5731
22732 341
351115 5267
142192 2133
277986 4170
5866 88
437178 6558
606836 9103
45797 687
386713 5801
15665 235
234588 3519
106194 1593
573704 8606
485375 7281
597703 8966
145326 2180
479242 7189
466310 6995
340449 5107
610769 9162
416645 6250
188590 2829
